(set-logic QF_LIA)
(declare-fun x0 () Int)
(declare-fun x1 () Int)
(declare-fun x2 () Int)
(declare-fun x3 () Int)
(declare-fun x4 () Int)
(declare-fun x5 () Int)
(declare-fun x6 () Int)
(declare-fun x7 () Int)
(declare-fun x8 () Int)
(declare-fun x9 () Int)
(declare-fun A2 () Bool)
(declare-fun A4 () Bool)
(declare-fun A5 () Bool)
(declare-fun A6 () Bool)
(declare-fun A7 () Bool)
(declare-fun A8 () Bool)
(declare-fun A9 () Bool)
(assert (let ((.def_0 (not A5))) (let ((.def_1 (not A2))) (let ((.def_2 (or .def_1 .def_0))) (let ((.def_3 (not .def_2))) (let ((.def_4 (* (- 1) x9))) (let ((.def_5 (< .def_4 1))) (let ((.def_6 (not .def_5))) (let ((.def_7 (not A9))) (let ((.def_8 (or .def_7 .def_6))) (let ((.def_9 (not .def_8))) (let ((.def_10 (or .def_9 .def_3))) (let ((.def_11 (not .def_10))) (let ((.def_12 (and .def_7 A7))) (let ((.def_13 (not .def_12))) (let ((.def_14 (* 1 x9))) (let ((.def_15 (< .def_14 (- 1)))) (let ((.def_16 (not .def_15))) (let ((.def_17 (* 1 x4))) (let ((.def_18 (< .def_17 (- 1)))) (let ((.def_19 (not .def_18))) (let ((.def_20 (or .def_19 .def_16))) (let ((.def_21 (not .def_20))) (let ((.def_22 (= .def_21 .def_13))) (let ((.def_23 (and .def_22 .def_11))) (let ((.def_24 (* (- 1) x7))) (let ((.def_25 (+ .def_24 .def_17))) (let ((.def_26 (< .def_25 1))) (let ((.def_27 (not .def_26))) (let ((.def_28 (not A4))) (let ((.def_29 (or .def_28 .def_27))) (let ((.def_30 (* 1 x8))) (let ((.def_31 (* (- 1) x1))) (let ((.def_32 (+ .def_31 .def_30))) (let ((.def_33 (< .def_32 1))) (let ((.def_34 (not .def_33))) (let ((.def_35 (< .def_31 1))) (let ((.def_36 (and .def_35 .def_34))) (let ((.def_37 (and .def_36 .def_29))) (let ((.def_38 (not .def_37))) (let ((.def_39 (not A8))) (let ((.def_40 (not A6))) (let ((.def_41 (or .def_40 .def_39))) (let ((.def_42 (* (- 1) x6))) (let ((.def_43 (< .def_42 (- 1)))) (let ((.def_44 (not .def_43))) (let ((.def_45 (and .def_44 A7))) (let ((.def_46 (not .def_45))) (let ((.def_47 (and .def_46 .def_41))) (let ((.def_48 (not .def_47))) (let ((.def_49 (and .def_48 .def_38))) (let ((.def_50 (not .def_49))) (let ((.def_51 (= .def_50 .def_23))) (let ((.def_52 (<= x9 1))) (let ((.def_53 (<= 0 x9))) (let ((.def_54 (<= x8 1))) (let ((.def_55 (<= 0 x8))) (let ((.def_56 (<= x7 1))) (let ((.def_57 (<= 0 x7))) (let ((.def_58 (<= x6 1))) (let ((.def_59 (<= 0 x6))) (let ((.def_60 (<= x5 1))) (let ((.def_61 (<= 0 x5))) (let ((.def_62 (<= x4 1))) (let ((.def_63 (<= 0 x4))) (let ((.def_64 (<= x3 1))) (let ((.def_65 (<= 0 x3))) (let ((.def_66 (<= x2 1))) (let ((.def_67 (<= 0 x2))) (let ((.def_68 (<= x1 1))) (let ((.def_69 (<= 0 x1))) (let ((.def_70 (<= x0 1))) (let ((.def_71 (<= 0 x0))) (let ((.def_72 (and .def_71 .def_70 .def_69 .def_68 .def_67 .def_66 .def_65 .def_64 .def_63 .def_62 .def_61 .def_60 .def_59 .def_58 .def_57 .def_56 .def_55 .def_54 .def_53 .def_52 .def_51))) .def_72))))))))))))))))))))))))))))))))))))))))))))))))))))))))))))))))))))))))))
(check-sat)
